TCS_Benchmarks/redos_fix/regexlib2_output_distinct_1103_1102_28_0.txt
(('{2})*)([^\n\r']*)
(('{2})*)(([^\n\r']*)('{2})*)([^\n\r']*)